  111

 C         -4.3999320000        2.3610590000        2.0476040000
 C         -4.6602720000        1.2575620000        1.0109190000
 C         -6.1323880000        1.2304970000        0.6187850000
 C         -3.7762520000        1.4504540000       -0.2438420000
 C         -2.3026450000        1.1335430000        0.0491070000
 N         -1.3754740000        2.1878100000       -0.3371180000
 C         -1.2782250000        2.6735510000       -1.6315570000
 O         -2.1890270000        2.6378050000       -2.4526100000
 C          0.0977140000        3.3227910000       -1.9163000000
 C          0.0082990000        4.8590260000       -1.9531540000
 C         -0.7676480000        5.6135230000       -0.8532210000
 C         -0.8131500000        7.1110410000       -1.2040790000
 C         -0.1992020000        5.4648340000        0.5534090000
 N          1.1121020000        2.6477760000       -1.0687710000
 C          2.2767270000        3.1659250000       -0.5471370000
 O          2.5518080000        4.3574530000       -0.5385910000
 C          3.2736860000        2.1245540000        0.0283350000
 C          3.9840140000        2.6176230000        1.3028160000
 C          3.2165870000        2.5009390000        2.6368840000
 C          1.8699550000        3.2131340000        2.6372700000
 C          4.0832020000        3.0639240000        3.7625400000
 N          2.7807500000        0.7549870000        0.2100390000
 C          2.8521040000       -0.1976410000       -0.7881270000
 O          2.9898260000        0.1097880000       -1.9667920000
 C          2.7781040000       -1.6426810000       -0.2538120000
 C          3.0693080000       -2.6876210000       -1.3468220000
 C          4.5499950000       -3.0004050000       -1.4207310000
 C          5.0472070000       -4.1329330000       -0.7667480000
 C          6.4100620000       -4.4363440000       -0.8108910000
 C          7.2779480000       -3.5793660000       -1.4813910000
 O          8.6019970000       -3.8951350000       -1.4890000000
 C          6.8007940000       -2.4464000000       -2.1310740000
 C          5.4353670000       -2.1559780000       -2.1099450000
 N          1.4785680000       -1.8603840000        0.3800100000
 C          1.3145520000       -2.8506510000        1.3358500000
 O          2.2505180000       -3.4578200000        1.8276650000
 C         -0.1228350000       -2.9666650000        1.8912890000
 C         -0.4880230000       -4.2695900000        2.5882970000
 C         -2.0252760000       -4.2503220000        2.6231430000
 C         -2.4321290000       -3.0173210000        1.8034720000
 N         -1.2530590000       -2.7111670000        1.0174940000
 C         -1.2257450000       -3.2646080000       -0.2752270000
 O         -0.6193870000       -4.2961460000       -0.5447020000
 C         -1.9667110000       -2.4419810000       -1.3677060000
 C         -2.8821330000       -3.2688540000       -2.2765410000
 C         -3.9844890000       -4.1021220000       -1.6048260000
 C         -4.4391110000       -5.1960550000       -2.5799270000
 C         -5.1999620000       -3.2961760000       -1.1682480000
 N         -2.5502270000       -1.2027220000       -0.8553560000
 C         -1.7133300000       -0.1428570000       -0.6057010000
 O         -0.4945420000       -0.2560000000       -0.8043100000
 H         -5.3113680000        2.9184310000        2.2887760000
 H         -3.9905940000        1.9302790000        2.9711870000
 H         -3.6735620000        3.0919410000        1.6769550000
 H         -4.4093840000        0.2884090000        1.4648050000
 H         -6.3701660000        0.3368300000        0.0216710000
 H         -6.3864670000        2.1068910000        0.0151950000
 H         -6.7858940000        1.2408270000        1.4990050000
 H         -4.1470740000        0.8509700000       -1.0786530000
 H         -3.8776580000        2.4979860000       -0.5716700000
 H         -2.1456260000        0.9994850000        1.1260310000
 H         -0.5209850000        2.2711300000        0.2103120000
 H          0.3727750000        2.9947650000       -2.9368050000
 H          1.0032310000        5.2917840000       -2.0774360000
 H         -0.5136770000        5.1001520000       -2.8971410000
 H         -1.7999370000        5.2512600000       -0.8400030000
 H          0.2000480000        7.5298110000       -1.2708050000
 H         -1.3176140000        7.2779730000       -2.1611190000
 H         -1.3531480000        7.6776760000       -0.4404980000
 H         -0.7953920000        6.0383860000        1.2753960000
 H         -0.2179480000        4.4281850000        0.8832290000
 H          0.8309300000        5.8284740000        0.6129630000
 H          1.1067770000        1.6357210000       -1.1807780000
 H          4.0552990000        2.0695270000       -0.7501240000
 H          4.9086780000        2.0309180000        1.4059100000
 H          4.3134740000        3.6524570000        1.1558360000
 H          3.0360430000        1.4449020000        2.8657110000
 H          1.9729570000        4.2697370000        2.3692960000
 H          1.1787750000        2.7489490000        1.9315820000
 H          1.3962240000        3.1668400000        3.6212850000
 H          3.5900320000        2.9676120000        4.7347680000
 H          4.2920140000        4.1242400000        3.5997000000
 H          5.0446770000        2.5399220000        3.8289540000
 H          2.4667190000        0.4525740000        1.1331130000
 H          3.5276430000       -1.7255380000        0.5403650000
 H          2.6960890000       -2.3803460000       -2.3333190000
 H          2.5405160000       -3.6258280000       -1.1257600000
 H          4.3676580000       -4.7888040000       -0.2149340000
 H          6.7870020000       -5.3219980000       -0.3109560000
 H          9.0727100000       -3.0565680000       -1.5933930000
 H          7.4696760000       -1.7898330000       -2.6745440000
 H          5.0833260000       -1.2673500000       -2.6320360000
 H          0.6690280000       -1.3855150000       -0.0175400000
 H         -0.1666150000       -2.1529800000        2.6411880000
 H         -0.0644010000       -4.3382100000        3.5935670000
 H         -0.1193990000       -5.1306790000        2.0202850000
 H         -2.4159640000       -5.1632980000        2.1579750000
 H         -2.4142400000       -4.1942350000        3.6432100000
 H         -2.6358810000       -2.1537120000        2.4506140000
 H         -3.3218430000       -3.2182190000        1.2053100000
 H         -1.1452590000       -2.1183720000       -2.0349320000
 H         -2.2195950000       -3.9592000000       -2.8357380000
 H         -3.3250300000       -2.6021800000       -3.0393960000
 H         -3.5760730000       -4.6077540000       -0.7251190000
 H         -4.8881430000       -4.7598230000       -3.4782210000
 H         -5.1905370000       -5.8418960000       -2.1053040000
 H         -3.6012680000       -5.8271810000       -2.8845830000
 H         -4.9896260000       -2.6328410000       -0.3250930000
 H         -6.0234790000       -3.9527560000       -0.8534320000
 H         -5.5917450000       -2.6798370000       -1.9884490000
 H         -3.4967270000       -1.2137470000       -0.4970830000
